\ENCODING=ISO-8859-1
\Problem name: 

Minimize
 obj: x1 + x2 + x3 + x4 + x5 + x6 + x7 + x8 + x9 + x10 + x11 + 2 x12 + 2 x13
      + 2 x14 + 2 x15 + 2 x16 + 2 x17 + 2 x18 + 2 x19 + 3 x20 + 3 x21 + 3 x22
      + 3 x23 + 3 x24 + 3 x25 + 3 x26 + 3 x27 + 3 x28 + 4 x29 + 4 x30 + 4 x31
      + 4 x32 + 4 x33 + 4 x34 + 4 x35 + 5 x36 + 5 x37 + 5 x38 + 5 x39 + 5 x40
      + 5 x41 + 5 x42 + 5 x43 + 6 x44 + 6 x45 + 6 x46 + 6 x47 + 6 x48 + 6 x49
      + 6 x50 + 6 x51 + 6 x52 + 6 x53 + 7 x54 + 7 x55 + 7 x56 + 7 x57 + 7 x58
      + 7 x59 + 7 x60 + 7 x61 + 7 x62 + 7 x63 + 8 x64 + 8 x65 + 8 x66 + 8 x67
      + 8 x68 + 9 x69 + 9 x70 + 9 x71 + 10 x72 + 10 x73 + 10 x74 + 10 x75
      + 10 x76 + 10 x77 + 11 x78 + 11 x79 + 11 x80 + 11 x81 + 11 x82 + 11 x83
      + 11 x84 + 11 x85 + 12 x86 + 12 x87 + 12 x88 + 12 x89 + 12 x90 + 12 x91
      + 13 x92 + 13 x93 + 13 x94 + 13 x95 + 13 x96 + 13 x97 + 13 x98 + 14 x99
      + 14 x100 + 14 x101 + 14 x102 + 14 x103 + 14 x104 + 14 x105 + 14 x106
      + 14 x107 + 14 x108 + 14 x109 + 15 x110 + 15 x111 + 15 x112 + 15 x113
      + 15 x114 + 16 x115 + 16 x116 + 16 x117 + 16 x118 + 16 x119 + 16 x120
      + 16 x121 + 17 x122 + 17 x123 + 17 x124 + 17 x125 + 17 x126 + 17 x127
      + 17 x128 + 17 x129 + 17 x130 + 17 x131 + 18 x132 + 18 x133 + 18 x134
      + 18 x135 + 18 x136 + 18 x137 + 18 x138 + 18 x139 + 18 x140 + 18 x141
      + 19 x142 + 19 x143 + 19 x144 + 19 x145 + 19 x146 + 19 x147 + 20 x148
      + 20 x149 + 20 x150 + 20 x151 + 20 x152 + 20 x153 + 20 x154 + 20 x155
      + 20 x156 + 20 x157 + 21 x158 + 21 x159 + 21 x160 + 21 x161 + 22 x162
      + 22 x163 + 22 x164 + 23 x165 + 23 x166 + 23 x167 + 23 x168 + 23 x169
      + 23 x170 + 23 x171 + 24 x172 + 24 x173 + 25 x174 + 25 x175 + 25 x176
      + 26 x177 + 26 x178 + 27 x179 + 27 x180 + 27 x181 + 28 x182 + 28 x183
      + 28 x184 + 29 x185 + 29 x186 + 29 x187 + 30 x188 + 30 x189 + 30 x190
      + 30 x191 + 31 x192 + 31 x193 + 33 x194 + 34 x195 + 34 x196 + 34 x197
      + 34 x198 + 34 x199 + 35 x200 + 35 x201 + 35 x202 + 36 x203 + 37 x204
      + 37 x205 + 37 x206 + 37 x207 + 38 x208 + 39 x209 + 40 x210 + 43 x211
      + 43 x212 + 45 x213 + 46 x214 + 47 x215 + 47 x216 + 48 x217 + 51 x218
      + 51 x219 + 51 x220 + 53 x221 + 56 x222 + 56 x223 + 58 x224 + 61 x225
      + 62 x226 + 70 x227 + 75 x228
Subject To
 c1:   x41 + x59 + x81 + x123 + x174 + x201 + x202 >= 1
 c2:   x33 + x45 + x47 + x73 + x76 >= 1
 c3:   x21 + x30 + x122 + x191 + x201 >= 1
 c4:   x64 + x68 + x108 + x144 >= 1
 c5:   x37 + x61 + x65 + x70 + x189 >= 1
 c6:   x192 + x216 + x221 + x224 + x228 >= 1
 c7:   x37 + x66 + x169 + x208 >= 1
 c8:   x21 + x27 + x162 >= 1
 c9:   x20 + x75 + x173 + x179 >= 1
 c10:  x34 + x45 + x150 + x179 + x215 + x223 >= 1
 c11:  x26 + x112 + x179 + x218 >= 1
 c12:  x65 + x71 + x73 + x78 + x84 + x92 + x102 + x162 >= 1
 c13:  x20 >= 1
 c14:  x10 + x218 >= 1
 c15:  x56 + x58 + x69 + x137 + x222 >= 1
 c16:  x16 + x126 + x142 >= 1
 c17:  x14 + x38 + x63 + x70 + x145 + x149 + x159 + x204 + x215 >= 1
 c18:  x57 + x95 + x101 + x134 + x143 + x151 + x180 + x182 >= 1
 c19:  x86 + x94 + x110 + x118 + x133 + x138 + x195 + x204 >= 1
 c20:  x44 + x62 + x88 + x165 + x193 + x194 >= 1
 c21:  x105 + x131 + x171 + x176 + x179 + x207 + x222 >= 1
 c22:  x31 + x44 + x118 + x158 + x161 + x185 >= 1
 c23:  x74 + x128 + x134 + x180 + x192 + x199 >= 1
 c24:  x40 + x111 + x115 + x124 + x226 >= 1
 c25:  x12 + x54 + x103 + x116 >= 1
 c26:  x90 + x133 + x149 + x152 + x165 + x172 + x214 + x218 + x228 >= 1
 c27:  x22 + x37 + x60 + x166 >= 1
 c28:  x177 + x188 + x193 + x198 + x205 + x208 + x215 + x220 >= 1
 c29:  x6 + x36 + x53 + x89 + x124 + x148 >= 1
 c30:  x65 + x104 + x132 >= 1
 c31:  x49 + x104 + x111 + x116 + x132 >= 1
 c32:  x64 + x135 + x157 + x174 + x203 >= 1
 c33:  x24 + x64 + x85 + x158 + x213 + x228 >= 1
 c34:  x30 + x55 + x122 + x137 + x139 + x171 + x218 + x219 >= 1
 c35:  x79 + x97 + x153 + x206 + x209 + x224 >= 1
 c36:  x161 + x180 + x197 + x220 >= 1
 c37:  x102 + x135 + x222 >= 1
 c38:  x38 + x168 >= 1
 c39:  x1 + x33 + x190 + x196 + x206 + x228 >= 1
 c40:  x22 + x43 + x56 + x67 + x78 + x100 + x104 + x119 >= 1
 c41:  x107 + x111 + x158 + x171 + x172 >= 1
 c42:  x88 + x169 + x177 + x200 + x206 >= 1
 c43:  x80 + x153 + x196 + x201 + x213 + x223 + x227 + x228 >= 1
 c44:  x36 + x94 + x117 >= 1
 c45:  x8 + x27 + x58 + x100 + x101 + x228 >= 1
 c46:  x30 + x72 + x86 + x175 + x182 >= 1
 c47:  x53 + x98 + x163 >= 1
 c48:  x6 + x167 + x201 + x213 >= 1
 c49:  x44 + x118 + x132 + x148 + x165 + x192 >= 1
 c50:  x36 + x56 + x102 + x207 >= 1
 c51:  x29 + x44 + x69 + x110 + x174 + x186 + x224 >= 1
 c52:  x78 + x111 + x115 + x116 + x130 + x181 + x182 + x212 >= 1
 c53:  x14 + x196 >= 1
 c54:  x45 + x102 + x106 + x134 + x174 >= 1
 c55:  x1 + x44 + x142 >= 1
 c56:  x12 + x69 + x169 + x195 + x200 + x202 >= 1
 c57:  x4 + x168 >= 1
 c58:  x4 + x55 + x130 + x188 >= 1
 c59:  x31 + x66 + x172 + x192 + x214 >= 1
 c60:  x23 + x109 + x135 + x144 >= 1
 c61:  x13 + x30 + x66 + x73 + x91 + x122 + x198 + x221 >= 1
 c62:  x4 + x14 + x46 + x72 + x170 + x173 + x188 >= 1
 c63:  x20 + x32 >= 1
 c64:  x1 + x25 + x62 + x105 + x202 >= 1
 c65:  x65 + x129 + x145 + x156 + x181 + x210 >= 1
 c66:  x74 + x85 + x126 + x127 + x203 >= 1
 c67:  x39 + x40 + x71 + x134 + x192 + x205 + x213 + x218 >= 1
 c68:  x36 + x45 + x54 + x84 + x100 + x142 + x152 + x208 >= 1
 c69:  x145 + x151 + x194 + x204 + x210 + x212 >= 1
 c70:  x32 + x69 + x170 + x222 >= 1
 c71:  x7 + x123 + x153 + x190 + x194 >= 1
 c72:  x81 + x91 + x92 + x176 + x226 >= 1
 c73:  x18 + x167 >= 1
 c74:  x71 + x183 >= 1
 c75:  x19 + x199 >= 1
 c76:  x92 + x139 + x186 + x210 + x212 + x221 >= 1
 c77:  x46 + x67 + x93 + x95 + x199 + x201 + x225 >= 1
 c78:  x140 + x148 + x149 + x164 + x170 + x186 + x203 + x223 >= 1
 c79:  x44 + x48 >= 1
 c80:  x23 + x89 + x196 + x210 + x222 >= 1
 c81:  x25 + x55 + x74 + x88 + x110 + x117 + x182 + x183 >= 1
 c82:  x15 + x32 + x49 + x80 + x153 + x177 >= 1
 c83:  x29 + x87 + x150 + x182 >= 1
 c84:  x7 + x52 + x112 + x146 >= 1
 c85:  x112 + x129 + x209 + x214 >= 1
 c86:  x120 + x185 + x199 + x210 + x218 + x224 + x226 >= 1
 c87:  x11 + x37 + x74 + x155 >= 1
 c88:  x175 + x184 + x190 + x219 >= 1
 c89:  x14 + x62 + x69 + x154 + x223 >= 1
 c90:  x83 + x93 + x112 + x148 + x166 + x167 >= 1
 c91:  x34 + x104 + x125 + x145 + x188 + x222 >= 1
 c92:  x101 + x121 + x136 + x142 + x145 + x191 + x217 + x218 + x227 >= 1
 c93:  x121 + x162 + x195 + x226 >= 1
 c94:  x78 + x172 >= 1
 c95:  x82 + x150 + x155 + x158 + x160 + x172 + x182 + x194 + x203 >= 1
 c96:  x37 + x58 + x99 + x132 + x140 >= 1
 c97:  x24 + x95 + x122 >= 1
 c98:  x1 + x4 + x55 + x72 + x204 >= 1
 c99:  x100 + x173 + x211 >= 1
 c100: x2 + x48 + x49 + x117 + x159 + x190 + x195 + x219 >= 1
 c101: x9 + x63 + x224 + x226 >= 1
 c102: x109 + x126 + x186 + x189 >= 1
 c103: x50 + x71 + x79 + x92 + x125 + x129 >= 1
 c104: x94 + x100 + x166 + x178 + x187 + x206 + x218 >= 1
 c105: x30 + x67 + x90 + x179 + x225 >= 1
 c106: x9 + x51 + x54 + x75 + x178 >= 1
 c107: x47 + x123 + x192 >= 1
 c108: x56 + x96 + x192 + x222 + x225 >= 1
 c109: x22 + x24 + x60 >= 1
 c110: x28 + x87 + x96 >= 1
 c111: x18 + x32 + x78 + x187 + x209 + x226 >= 1
 c112: x26 + x115 + x116 + x141 + x173 >= 1
 c113: x95 + x181 + x188 >= 1
 c114: x31 + x76 + x103 + x144 + x174 + x210 + x215 >= 1
 c115: x2 + x111 + x132 + x160 >= 1
 c116: x31 + x47 + x50 + x177 + x222 >= 1
 c117: x44 + x57 + x83 + x144 >= 1
 c118: x26 + x69 + x208 >= 1
 c119: x52 + x107 + x122 + x203 >= 1
 c120: x6 + x46 + x47 + x117 + x156 + x197 >= 1
 c121: x8 + x28 + x78 + x106 + x195 >= 1
 c122: x5 + x44 + x95 >= 1
 c123: x75 + x99 + x166 >= 1
 c124: x74 + x206 >= 1
 c125: x68 + x75 + x77 + x92 + x99 + x200 >= 1
 c126: x1 + x36 + x68 + x133 + x149 >= 1
 c127: x54 + x64 + x81 + x89 + x92 + x96 + x138 + x149 + x173 + x177 >= 1
 c128: x8 + x45 + x54 + x94 + x197 + x215 >= 1
 c129: x1 + x57 + x78 + x86 + x135 >= 1
 c130: x54 + x140 + x207 + x222 >= 1
 c131: x13 + x37 + x126 + x147 + x151 + x154 + x209 + x221 >= 1
 c132: x152 + x154 + x190 >= 1
 c133: x101 + x122 + x220 >= 1
 c134: x29 + x57 + x69 + x79 + x82 + x87 >= 1
 c135: x122 + x127 + x141 + x167 + x175 + x202 + x209 + x227 >= 1
 c136: x21 + x42 + x59 + x78 + x136 + x142 >= 1
 c137: x58 + x63 + x87 + x191 + x222 >= 1
 c138: x22 + x39 + x78 + x138 + x185 + x200 + x221 >= 1
 c139: x43 + x119 + x127 + x169 + x172 + x196 + x198 >= 1
 c140: x86 + x106 + x118 + x163 + x201 + x207 >= 1
 c141: x29 + x70 + x142 + x180 >= 1
 c142: x35 + x72 + x79 + x167 + x168 + x212 >= 1
 c143: x77 + x191 + x200 >= 1
 c144: x25 + x61 + x69 + x80 + x90 + x178 >= 1
 c145: x15 + x64 + x143 >= 1
 c146: x27 + x55 + x97 >= 1
 c147: x13 + x21 + x31 + x48 + x54 + x71 + x110 + x143 >= 1
 c148: x3 + x16 + x123 + x134 >= 1
 c149: x17 + x96 + x127 + x184 >= 1
 c150: x61 + x86 + x94 + x217 + x218 >= 1
 c151: x21 + x22 + x55 + x152 + x175 >= 1
 c152: x13 + x79 + x81 + x97 + x180 + x183 >= 1
 c153: x3 + x70 + x113 >= 1
 c154: x29 + x84 + x181 >= 1
 c155: x24 + x41 + x42 + x45 + x50 + x83 + x93 + x124 + x170 + x198 >= 1
 c156: x110 + x130 + x162 + x197 + x219 >= 1
 c157: x29 + x82 + x88 + x120 + x148 + x189 >= 1
 c158: x67 + x80 + x81 + x93 >= 1
 c159: x60 + x115 + x117 + x131 + x143 + x208 >= 1
 c160: x16 + x25 + x73 + x159 + x189 >= 1
 c161: x2 + x5 + x36 + x91 + x125 + x152 + x183 >= 1
 c162: x2 + x76 + x124 + x149 >= 1
 c163: x20 + x65 + x113 + x151 + x172 + x221 >= 1
 c164: x211 + x213 + x217 + x223 + x225 + x228 >= 1
 c165: x2 + x3 + x17 + x59 + x182 >= 1
 c166: x77 + x98 + x115 + x197 >= 1
 c167: x2 + x20 + x93 + x99 + x125 + x183 >= 1
 c168: x26 + x41 + x76 + x216 >= 1
 c169: x3 + x36 + x61 + x83 + x114 + x172 >= 1
 c170: x102 + x185 + x211 + x228 >= 1
 c171: x17 + x48 + x158 + x160 + x216 >= 1
 c172: x114 + x122 + x137 + x159 + x200 + x216 >= 1
 c173: x38 + x57 + x70 + x205 + x222 >= 1
 c174: x72 + x99 + x108 + x143 + x155 + x162 + x225 + x226 >= 1
 c175: x40 + x54 + x56 + x107 + x114 + x116 + x148 + x213 >= 1
 c176: x12 + x59 + x103 + x184 + x205 >= 1
 c177: x15 + x23 + x45 + x46 + x105 + x111 + x136 + x211 >= 1
 c178: x39 + x49 >= 1
 c179: x50 + x143 + x204 + x210 + x216 >= 1
 c180: x12 + x87 >= 1
 c181: x7 + x150 + x164 + x198 + x203 + x228 >= 1
 c182: x122 + x136 + x148 + x157 + x164 + x196 + x215 >= 1
 c183: x147 + x164 + x166 + x183 + x189 + x214 >= 1
 c184: x89 + x110 + x119 + x125 >= 1
 c185: x5 + x39 + x60 + x110 + x150 + x151 + x175 + x188 >= 1
 c186: x103 + x124 + x128 + x159 + x226 >= 1
 c187: x51 + x66 + x97 + x175 + x176 + x208 >= 1
 c188: x23 + x221 + x227 >= 1
 c189: x105 + x123 + x156 + x219 + x220 >= 1
 c190: x113 + x132 + x179 + x187 + x227 >= 1
 c191: x108 + x163 + x168 + x188 + x199 >= 1
 c192: x32 + x133 + x174 + x195 >= 1
 c193: x46 + x128 + x163 + x165 + x193 + x197 + x211 + x224 >= 1
 c194: x84 + x96 + x139 + x146 + x162 + x202 >= 1
 c195: x72 + x93 + x144 + x160 + x161 + x178 + x219 >= 1
 c196: x1 + x189 >= 1
 c197: x38 + x80 + x165 + x205 >= 1
 c198: x29 + x33 + x72 + x101 + x219 >= 1
 c199: x34 + x73 + x82 + x133 >= 1
 c200: x137 + x146 + x227 >= 1
Bounds
 0 <= x1 <= 1
 0 <= x2 <= 1
 0 <= x3 <= 1
 0 <= x4 <= 1
 0 <= x5 <= 1
 0 <= x6 <= 1
 0 <= x7 <= 1
 0 <= x8 <= 1
 0 <= x9 <= 1
 0 <= x10 <= 1
 0 <= x11 <= 1
 0 <= x12 <= 1
 0 <= x13 <= 1
 0 <= x14 <= 1
 0 <= x15 <= 1
 0 <= x16 <= 1
 0 <= x17 <= 1
 0 <= x18 <= 1
 0 <= x19 <= 1
 0 <= x20 <= 1
 0 <= x21 <= 1
 0 <= x22 <= 1
 0 <= x23 <= 1
 0 <= x24 <= 1
 0 <= x25 <= 1
 0 <= x26 <= 1
 0 <= x27 <= 1
 0 <= x28 <= 1
 0 <= x29 <= 1
 0 <= x30 <= 1
 0 <= x31 <= 1
 0 <= x32 <= 1
 0 <= x33 <= 1
 0 <= x34 <= 1
 0 <= x35 <= 1
 0 <= x36 <= 1
 0 <= x37 <= 1
 0 <= x38 <= 1
 0 <= x39 <= 1
 0 <= x40 <= 1
 0 <= x41 <= 1
 0 <= x42 <= 1
 0 <= x43 <= 1
 0 <= x44 <= 1
 0 <= x45 <= 1
 0 <= x46 <= 1
 0 <= x47 <= 1
 0 <= x48 <= 1
 0 <= x49 <= 1
 0 <= x50 <= 1
 0 <= x51 <= 1
 0 <= x52 <= 1
 0 <= x53 <= 1
 0 <= x54 <= 1
 0 <= x55 <= 1
 0 <= x56 <= 1
 0 <= x57 <= 1
 0 <= x58 <= 1
 0 <= x59 <= 1
 0 <= x60 <= 1
 0 <= x61 <= 1
 0 <= x62 <= 1
 0 <= x63 <= 1
 0 <= x64 <= 1
 0 <= x65 <= 1
 0 <= x66 <= 1
 0 <= x67 <= 1
 0 <= x68 <= 1
 0 <= x69 <= 1
 0 <= x70 <= 1
 0 <= x71 <= 1
 0 <= x72 <= 1
 0 <= x73 <= 1
 0 <= x74 <= 1
 0 <= x75 <= 1
 0 <= x76 <= 1
 0 <= x77 <= 1
 0 <= x78 <= 1
 0 <= x79 <= 1
 0 <= x80 <= 1
 0 <= x81 <= 1
 0 <= x82 <= 1
 0 <= x83 <= 1
 0 <= x84 <= 1
 0 <= x85 <= 1
 0 <= x86 <= 1
 0 <= x87 <= 1
 0 <= x88 <= 1
 0 <= x89 <= 1
 0 <= x90 <= 1
 0 <= x91 <= 1
 0 <= x92 <= 1
 0 <= x93 <= 1
 0 <= x94 <= 1
 0 <= x95 <= 1
 0 <= x96 <= 1
 0 <= x97 <= 1
 0 <= x98 <= 1
 0 <= x99 <= 1
 0 <= x100 <= 1
 0 <= x101 <= 1
 0 <= x102 <= 1
 0 <= x103 <= 1
 0 <= x104 <= 1
 0 <= x105 <= 1
 0 <= x106 <= 1
 0 <= x107 <= 1
 0 <= x108 <= 1
 0 <= x109 <= 1
 0 <= x110 <= 1
 0 <= x111 <= 1
 0 <= x112 <= 1
 0 <= x113 <= 1
 0 <= x114 <= 1
 0 <= x115 <= 1
 0 <= x116 <= 1
 0 <= x117 <= 1
 0 <= x118 <= 1
 0 <= x119 <= 1
 0 <= x120 <= 1
 0 <= x121 <= 1
 0 <= x122 <= 1
 0 <= x123 <= 1
 0 <= x124 <= 1
 0 <= x125 <= 1
 0 <= x126 <= 1
 0 <= x127 <= 1
 0 <= x128 <= 1
 0 <= x129 <= 1
 0 <= x130 <= 1
 0 <= x131 <= 1
 0 <= x132 <= 1
 0 <= x133 <= 1
 0 <= x134 <= 1
 0 <= x135 <= 1
 0 <= x136 <= 1
 0 <= x137 <= 1
 0 <= x138 <= 1
 0 <= x139 <= 1
 0 <= x140 <= 1
 0 <= x141 <= 1
 0 <= x142 <= 1
 0 <= x143 <= 1
 0 <= x144 <= 1
 0 <= x145 <= 1
 0 <= x146 <= 1
 0 <= x147 <= 1
 0 <= x148 <= 1
 0 <= x149 <= 1
 0 <= x150 <= 1
 0 <= x151 <= 1
 0 <= x152 <= 1
 0 <= x153 <= 1
 0 <= x154 <= 1
 0 <= x155 <= 1
 0 <= x156 <= 1
 0 <= x157 <= 1
 0 <= x158 <= 1
 0 <= x159 <= 1
 0 <= x160 <= 1
 0 <= x161 <= 1
 0 <= x162 <= 1
 0 <= x163 <= 1
 0 <= x164 <= 1
 0 <= x165 <= 1
 0 <= x166 <= 1
 0 <= x167 <= 1
 0 <= x168 <= 1
 0 <= x169 <= 1
 0 <= x170 <= 1
 0 <= x171 <= 1
 0 <= x172 <= 1
 0 <= x173 <= 1
 0 <= x174 <= 1
 0 <= x175 <= 1
 0 <= x176 <= 1
 0 <= x177 <= 1
 0 <= x178 <= 1
 0 <= x179 <= 1
 0 <= x180 <= 1
 0 <= x181 <= 1
 0 <= x182 <= 1
 0 <= x183 <= 1
 0 <= x184 <= 1
 0 <= x185 <= 1
 0 <= x186 <= 1
 0 <= x187 <= 1
 0 <= x188 <= 1
 0 <= x189 <= 1
 0 <= x190 <= 1
 0 <= x191 <= 1
 0 <= x192 <= 1
 0 <= x193 <= 1
 0 <= x194 <= 1
 0 <= x195 <= 1
 0 <= x196 <= 1
 0 <= x197 <= 1
 0 <= x198 <= 1
 0 <= x199 <= 1
 0 <= x200 <= 1
 0 <= x201 <= 1
 0 <= x202 <= 1
 0 <= x203 <= 1
 0 <= x204 <= 1
 0 <= x205 <= 1
 0 <= x206 <= 1
 0 <= x207 <= 1
 0 <= x208 <= 1
 0 <= x209 <= 1
 0 <= x210 <= 1
 0 <= x211 <= 1
 0 <= x212 <= 1
 0 <= x213 <= 1
 0 <= x214 <= 1
 0 <= x215 <= 1
 0 <= x216 <= 1
 0 <= x217 <= 1
 0 <= x218 <= 1
 0 <= x219 <= 1
 0 <= x220 <= 1
 0 <= x221 <= 1
 0 <= x222 <= 1
 0 <= x223 <= 1
 0 <= x224 <= 1
 0 <= x225 <= 1
 0 <= x226 <= 1
 0 <= x227 <= 1
 0 <= x228 <= 1
Binaries
 x1  x2  x3  x4  x5  x6  x7  x8  x9  x10  x11  x12  x13  x14  x15  x16  x17 
 x18  x19  x20  x21  x22  x23  x24  x25  x26  x27  x28  x29  x30  x31  x32 
 x33  x34  x35  x36  x37  x38  x39  x40  x41  x42  x43  x44  x45  x46  x47 
 x48  x49  x50  x51  x52  x53  x54  x55  x56  x57  x58  x59  x60  x61  x62 
 x63  x64  x65  x66  x67  x68  x69  x70  x71  x72  x73  x74  x75  x76  x77 
 x78  x79  x80  x81  x82  x83  x84  x85  x86  x87  x88  x89  x90  x91  x92 
 x93  x94  x95  x96  x97  x98  x99  x100  x101  x102  x103  x104  x105  x106 
 x107  x108  x109  x110  x111  x112  x113  x114  x115  x116  x117  x118  x119 
 x120  x121  x122  x123  x124  x125  x126  x127  x128  x129  x130  x131  x132 
 x133  x134  x135  x136  x137  x138  x139  x140  x141  x142  x143  x144  x145 
 x146  x147  x148  x149  x150  x151  x152  x153  x154  x155  x156  x157  x158 
 x159  x160  x161  x162  x163  x164  x165  x166  x167  x168  x169  x170  x171 
 x172  x173  x174  x175  x176  x177  x178  x179  x180  x181  x182  x183  x184 
 x185  x186  x187  x188  x189  x190  x191  x192  x193  x194  x195  x196  x197 
 x198  x199  x200  x201  x202  x203  x204  x205  x206  x207  x208  x209  x210 
 x211  x212  x213  x214  x215  x216  x217  x218  x219  x220  x221  x222  x223 
 x224  x225  x226  x227  x228 
End
